336 335 334 283 284 285 286 287 280 281 282 279 278 277 276 290 289 288 333 332 331 330 342 366 329 328 327 326 325 324 323 322 373 372 371 396 395 394 393 391 392 390 381 380 379 378 377 376 375 374 315 314 316 313 305 306 318 317 319 320 321 297 296 295 294 291 292 275 274 273 272 269 293 270 268 271 267 298 266 265 264 263 262 261 260 259 258 299 300 257 256 255 253 254 252 251 250 249 248 241 242 243 244 245 247 246 238 239 240 237 236 235 234 232 233 530 529 528 527 512 511 510 509 513 514 515 516 517 502 503 504 505 506 507 508 302 301 303 304 307 308 309 310 311 312 451 450 441 440 453 452 499 500 501 498 497 519 518 520 521 522 523 526 491 492 493 525 524 494 495 496 470 471 472 473 474 468 469 465 464 463 462 461 460 466 467 571 570 569 568 567 566 565 564 563 562 561 560 549 548 478 477 479 480 476 475 482 481 483 536 484 485 490 486 487 535 534 488 489 531 532 533 231 230 229 228 227 189 225 226 190 191 192 193 219 218 220 221 222 224 223 217 216 215 214 213 212 211 210 209 205 206 207 208 203 204 202 201 200 199 198 197 196 195 194 184 185 183 182 186 188 187 538 537 539 540 176 177 178 179 181 180 169 171 170 172 175 174 173 108 109 107 542 541 543 544 545 546 547 103 104 105 106 117 116 115 110 111 114 112 113 161 160 162 168 163 167 166 164 165 154 155 159 156 153 157 158 145 144 143 142 146 147 148 152 149 150 151 141 140 139 136 135 134 133 132 131 130 129 137 138 128 127 126 125 124 69 70 68 67 66 65 72 71 123 122 121 120 118 119 73 74 75 76 64 62 63 60 61 79 80 81 59 58 57 82 83 56 55 53 54 52 50 51 84 85 86 87 88 78 77 89 90 92 93 94 95 96 97 98 99 100 102 101 551 550 559 558 557 556 552 553 554 555 91 46 45 44 47 48 49 43 42 39 41 40 38 37 36 35 34 33 32 30 31 29 28 27 26 25 24 21 22 23 12 13 20 19 18 17 16 15 14 11 10 9 8 7 6 572 573 5 0 1 4 3 2 458 459 457 456 455 454 439 442 449 448 447 446 445 444 443 436 438 437 435 434 433 432 430 431 429 428 427 426 424 425 382 389 388 387 386 385 408 407 406 405 409 384 383 423 422 421 420 419 417 418 410 411 412 356 355 354 353 352 413 414 416 415 351 350 349 348 347 362 346 364 363 361 359 358 357 360 401 402 403 404 400 399 397 398 370 369 368 367 365 345 344 343 341 340 339 338 337